Version identifier: 22.1.1.0 | 2022-11-28 | 9160aff4d
CPXPARAM_ClockType                               1
CPXPARAM_Read_DataCheck                          1
CPXPARAM_Threads                                 1
CPXPARAM_TimeLimit                               7200
CPXPARAM_MIP_Tolerances_AbsMIPGap                0
CPXPARAM_MIP_Tolerances_MIPGap                   0
CPXPARAM_MIP_Tolerances_Integrality              0
Tried aggregator 5 times.
MIP Presolve eliminated 6306 rows and 2652 columns.
MIP Presolve modified 1880 coefficients.
Aggregator did 627 substitutions.
Reduced MIP has 1850 rows, 1139 columns, and 5212 nonzeros.
Reduced MIP has 1139 binaries, 0 generals, 0 SOSs, and 0 indicators.
Presolve time = 0.02 sec. (14.32 ticks)
Found incumbent of value -724.000000 after 0.03 sec. (20.20 ticks)
Probing time = 0.00 sec. (3.05 ticks)
Tried aggregator 1 time.
Detecting symmetries...
MIP Presolve eliminated 10 rows and 6 columns.
MIP Presolve modified 2 coefficients.
Reduced MIP has 1840 rows, 1133 columns, and 5183 nonzeros.
Reduced MIP has 1133 binaries, 0 generals, 0 SOSs, and 0 indicators.
Presolve time = 0.01 sec. (5.73 ticks)
Probing time = 0.00 sec. (2.89 ticks)
Clique table members: 3782.
MIP emphasis: balance optimality and feasibility.
MIP search method: dynamic search.
Parallel mode: none, using 1 thread.
Root relaxation solution time = 0.01 sec. (7.46 ticks)

        Nodes                                         Cuts/
   Node  Left     Objective  IInf  Best Integer    Best Bound    ItCnt     Gap

*     0+    0                         -716.0000      190.0000           126.54%
*     0     0      integral     0      190.0000      190.0000      468    0.00%
Elapsed time = 0.06 sec. (43.11 ticks, tree = 0.00 MB, solutions = 3)

Root node processing (before b&c):
  Real time             =    0.06 sec. (43.31 ticks)
Sequential b&c:
  Real time             =    0.00 sec. (0.00 ticks)
                          ------------
Total (root+branch&cut) =    0.06 sec. (43.31 ticks)
Solution is feasible.

---------------------
@@@ MIP_optimal
>>> Benchmark mc2024_track1_180.cnf k 2 OPT 190 TimeCost 0.7627782821655273 TimeSolve 0.06830906867980957 TimeRead 0.0055849552154541016 TimeTrans 0.6888842582702637
